(set-logic ALL)
(declare-fun var0 () String)
(assert (str.in_re var0 (re.++ (re.+ (re.* (str.to_re "00"))) (re.++ (re.* (re.union (str.to_re "1") (str.to_re "22"))) (re.++ (re.* (re.union (str.to_re "33") (str.to_re "4"))) (re.++ (re.+ (re.* (str.to_re "5"))) (re.++ (re.+ (re.+ (str.to_re "6"))) (re.++ (re.* (re.union (str.to_re "77") (str.to_re "8"))) (re.++ (re.+ (re.* (str.to_re "9"))) (re.++ (re.+ (re.+ (str.to_re "aaa"))) (re.++ (re.+ (re.+ (str.to_re "b"))) (re.+ (re.union (str.to_re "cc") (str.to_re "d"))))))))))))))
(assert (<= 176 (str.len var0)))
(check-sat)